
(set-logic BV)

(define-fun shr1 ((x (BitVec 64))) (BitVec 64) (bvlshr x #x0000000000000001))
(define-fun shr4 ((x (BitVec 64))) (BitVec 64) (bvlshr x #x0000000000000004))
(define-fun shr16 ((x (BitVec 64))) (BitVec 64) (bvlshr x #x0000000000000010))
(define-fun shl1 ((x (BitVec 64))) (BitVec 64) (bvshl x #x0000000000000001))
(define-fun if0 ((x (BitVec 64)) (y (BitVec 64)) (z (BitVec 64))) (BitVec 64) (ite (= x #x0000000000000001) y z))
(define-fun func24  ((A (BitVec 64)) (B (BitVec 64)) (C (BitVec 64)) (D (BitVec 64)) ) (BitVec 64) (bvand (bvlshr (bvlshr C  D ) B ) A ))
(define-fun func25  ((A (BitVec 64)) (B (BitVec 64)) (C (BitVec 64)) ) (BitVec 64) (bvand (bvlshr B  C ) A ))
(define-fun func26  ((A (BitVec 64)) (B (BitVec 64)) ) (BitVec 64) (bvand (bvlshr B  #x0000000000000001 ) A ))
(define-fun func27  ((A (BitVec 64)) (B (BitVec 64)) ) (BitVec 64) (bvand (bvlshr B  #x0000000000000010 ) A ))
(define-fun func28  ((A (BitVec 64)) (B (BitVec 64)) ) (BitVec 64) (bvand (bvlshr B  #x0000000000000004 ) A ))
(define-fun func29  ((A (BitVec 64)) (B (BitVec 64)) ) (BitVec 64) (bvand (bvlshr A  B ) #x0000000000000001 ))
(define-fun func30  ((A (BitVec 64)) ) (BitVec 64) (bvand A  #x0000000000000001 ))
(define-fun func31  ((A (BitVec 64)) (B (BitVec 64)) (C (BitVec 64)) (D (BitVec 64)) ) (BitVec 64) (bvlshr (bvlshr (bvlshr C  D ) B ) A ))
(define-fun func32  ((A (BitVec 64)) (B (BitVec 64)) (C (BitVec 64)) ) (BitVec 64) (bvlshr (bvlshr (bvlshr C  #x0000000000000010 ) B ) A ))
(define-fun func33  ((A (BitVec 64)) (B (BitVec 64)) (C (BitVec 64)) ) (BitVec 64) (bvlshr (bvlshr (bvlshr B  C ) A ) #x0000000000000004 ))
(define-fun func34  ((A (BitVec 64)) (B (BitVec 64)) (C (BitVec 64)) ) (BitVec 64) (bvlshr (bvlshr (bvlshr B  C ) #x0000000000000004 ) A ))
(define-fun func35  ((A (BitVec 64)) (B (BitVec 64)) (C (BitVec 64)) ) (BitVec 64) (bvlshr (bvlshr B  C ) A ))
(define-fun func36  ((A (BitVec 64)) (B (BitVec 64)) ) (BitVec 64) (bvlshr (bvlshr B  #x0000000000000010 ) A ))
(define-fun func37  ((A (BitVec 64)) (B (BitVec 64)) ) (BitVec 64) (bvlshr (bvlshr B  #x0000000000000004 ) A ))
(define-fun func38  ((A (BitVec 64)) (B (BitVec 64)) ) (BitVec 64) (bvlshr (bvlshr B  #x0000000000000001 ) A ))
(define-fun func39  ((A (BitVec 64)) (B (BitVec 64)) ) (BitVec 64) (bvlshr (bvlshr A  B ) #x0000000000000001 ))
(define-fun func40  ((A (BitVec 64)) (B (BitVec 64)) ) (BitVec 64) (bvlshr (bvlshr A  B ) #x0000000000000004 ))
(define-fun func41  ((A (BitVec 64)) (B (BitVec 64)) ) (BitVec 64) (bvlshr A  B ))
(define-fun func42  ((A (BitVec 64)) (B (BitVec 64)) (C (BitVec 64)) ) (BitVec 64) (bvlshr (bvshl B  C ) A ))
(define-fun func43  ((A (BitVec 64)) (B (BitVec 64)) ) (BitVec 64) (bvlshr (bvshl B  #x0000000000000001 ) A ))
(define-fun func44  ((A (BitVec 64)) (B (BitVec 64)) ) (BitVec 64) (bvlshr (bvshl A  B ) #x0000000000000004 ))
(define-fun func45  ((A (BitVec 64)) (B (BitVec 64)) (C (BitVec 64)) ) (BitVec 64) (bvlshr (bvadd B  C ) A ))
(define-fun func46  ((A (BitVec 64)) (B (BitVec 64)) ) (BitVec 64) (bvlshr (bvnot B ) A ))
(define-fun func47  ((A (BitVec 64)) ) (BitVec 64) (bvlshr (bvnot A ) #x0000000000000010 ))
(define-fun func48  ((A (BitVec 64)) (B (BitVec 64)) (C (BitVec 64)) ) (BitVec 64) (bvor (bvlshr B  C ) A ))
(define-fun func49  ((A (BitVec 64)) ) (BitVec 64) (bvor A  #x0000000000000001 ))
(define-fun func50  ((A (BitVec 64)) (B (BitVec 64)) (C (BitVec 64)) ) (BitVec 64) (bvshl (bvlshr B  C ) A ))
(define-fun func51  ((A (BitVec 64)) (B (BitVec 64)) ) (BitVec 64) (bvshl (bvlshr B  #x0000000000000001 ) A ))
(define-fun func52  ((A (BitVec 64)) (B (BitVec 64)) ) (BitVec 64) (bvshl (bvlshr A  B ) #x0000000000000001 ))
(define-fun func54  ((A (BitVec 64)) (B (BitVec 64)) (C (BitVec 64)) ) (BitVec 64) (bvadd (bvlshr B  C ) A ))
(define-fun func55  ((A (BitVec 64)) ) (BitVec 64) (bvadd A  #x0000000000000001 ))
(define-fun func56  ((A (BitVec 64)) (B (BitVec 64)) (C (BitVec 64)) ) (BitVec 64) (bvadd (bvshl B  C ) A ))
(define-fun func57  ((A (BitVec 64)) (B (BitVec 64)) ) (BitVec 64) (bvadd (bvshl B  #x0000000000000001 ) A ))
(define-fun func58  ((A (BitVec 64)) ) (BitVec 64) (bvnot (bvshl A  #x0000000000000001 )))
(synth-fun f ( (x (BitVec 64))) (BitVec 64)
(
(Start (BitVec 64) (
   #x0000000000000000
   #x0000000000000001
   x
   (func25 Start Start Start)
   (func28 Start Start)
   (func30 Start)
   (func35 Start Start Start)
   (func36 Start Start)
   (func37 Start Start)
   (func40 Start Start)
   (func42 Start Start Start)
   (func48 Start Start Start)
   (func51 Start Start)
   (func52 Start Start)
   (func54 Start Start Start)
   (func57 Start Start)
   (shr16 Start)
   (bvor Start Start)
   (bvxor Start Start)
   (bvadd Start Start)
   (if0 Start Start Start)
))
))
(constraint (= (f #x7ca01900ac6471c5) #x835fe6ff539b8e3b))
(constraint (= (f #x104388bf30d0c5ad) #xefbc7740cf2f3a53))
(constraint (= (f #x1b8fdcab51f8ce84) #xe4702354ae07317a))
(constraint (= (f #xbdf628ed4a1d3581) #x4209d712b5e2ca7f))
(constraint (= (f #x44f4a650eeecaef0) #xbb0b59af1113510e))
(constraint (= (f #x9b744acdd1733c60) #x648bb5322e8cc39e))
(constraint (= (f #x649afc75112e2484) #x9b65038aeed1db7a))
(constraint (= (f #x45b14239d486f9e8) #xba4ebdc62b790616))
(constraint (= (f #x6224d51e64566290) #x9ddb2ae19ba99d6e))
(constraint (= (f #x2a64908000c69141) #xd59b6f7fff396ebf))
(constraint (= (f #x58b2caf2544be613) #x00002c5965792a26))
(constraint (= (f #x19aa84d4fc77be6f) #x00000cd5426a7e3c))
(constraint (= (f #x458389057e12e3ab) #x000022c1c482bf09))
(constraint (= (f #x8f5dab64687ae8c3) #x000047aed5b2343d))
(constraint (= (f #xe0786335a4eecd53) #x0000703c319ad277))
(constraint (= (f #xc685ea8bc358187e) #x00006342f545e1ac))
(constraint (= (f #x4ff7426ad8b4c837) #x000027fba1356c5a))
(constraint (= (f #x22d44bb1cd94ceda) #x0000116a25d8e6ca))
(constraint (= (f #x1bd83ede94802443) #x00000dec1f6f4a40))
(constraint (= (f #xd8de0c6ea7dc2b07) #x00006c6f063753ee))
(constraint (= (f #xfffffffffffffffd) #x0000800000000000))
(constraint (= (f #x000000000011d5e1) #xfffffffffffffffe))
(constraint (= (f #x0000000000199bc8) #xfffffffffffffffe))
(constraint (= (f #x0000000000113788) #xfffffffffffffffe))
(constraint (= (f #x000000000015ae50) #xfffffffffffffffe))
(constraint (= (f #x0000000000156334) #xfffffffffffffffe))
(constraint (= (f #x00000000001e93ad) #xfffffffffffffffe))
(constraint (= (f #x000000000013bb8d) #xfffffffffffffffe))
(constraint (= (f #x00000000001f4761) #xfffffffffffffffe))
(constraint (= (f #x00000000001ff04d) #xfffffffffffffffe))
(constraint (= (f #x000000000012b8d1) #xfffffffffffffffe))
(constraint (= (f #x000000000016e617) #x0000000000000000))
(constraint (= (f #x00000000001a38c3) #x0000000000000000))
(constraint (= (f #x000000000016dd1e) #x0000000000000000))
(constraint (= (f #x00000000001bd252) #x0000000000000000))
(constraint (= (f #x00000000001f5fa7) #x0000000000000000))
(constraint (= (f #x0000000000153706) #x0000000000000000))
(constraint (= (f #x000000000019c837) #x0000000000000000))
(constraint (= (f #x0000000000182ab7) #x0000000000000000))
(constraint (= (f #x000000000010ca0a) #x0000000000000000))
(constraint (= (f #x0000000000109bc7) #x0000000000000000))
(constraint (= (f #x3ac51425b5015949) #xc53aebda4afea6b7))
(constraint (= (f #xd5e68c714d77267c) #x2a19738eb288d982))
(constraint (= (f #xeac01c73689b16b6) #x000075600e39b44e))
(constraint (= (f #x62616b37ef01ee39) #x9d9e94c810fe11c7))
(constraint (= (f #x4c62649c98e1872c) #xb39d9b63671e78d2))
(constraint (= (f #x921b2528be2a785d) #x6de4dad741d587a3))
(constraint (= (f #xd5eab78460f26012) #x00006af55bc23079))
(constraint (= (f #x00bb38ab9efc0bbf) #x0000005d9c55cf7e))
(constraint (= (f #x8e8a55f12f5afff5) #x7175aa0ed0a5000b))
(constraint (= (f #xba1a7f3ec8b5da79) #x45e580c1374a2587))
(constraint (= (f #x00000000001f5afe) #x0000000000000000))
(constraint (= (f #x00000000001baebd) #xfffffffffffffffe))
(constraint (= (f #xfffffffffffffffd) #x0000800000000000))
(constraint (= (f #x00000000001f9663) #x0000000000000000))
(constraint (= (f #x000000000011c1fa) #x0000000000000000))
(constraint (= (f #x00000000001a57b4) #xfffffffffffffffe))
(constraint (= (f #x00000000001474c8) #xfffffffffffffffe))
(constraint (= (f #xfffffffffffffffc) #x0000000000000002))
(check-synth)
